Route #1: 22 34 7 13 56 57 27 26 43 17 45 31 10 32 24 9 37 52 38 48 39 46 28 11 12 49 14
Route #2: 5 30 40 15 55 51 25 2 19 36 35 21 18 44 8 50 4 29 33 41 42 20 3 53 23 47
Route #3: 1 6 54 16
Route #4: 
Route #5: 
Route #6: 
Route #7: 
Route #8: 
Route #9: 
cost 2345.33404208915
